32
0 5 27 13
1 10 12 23
2 9 11 26
3 7 4 31
4 29 3 6
5 0 8 18
6 20 28 4
7 3 24 17
8 28 5 22
9 2 21 29
10 1 15 25
11 12 2 30
12 11 1 16
13 22 16 0
14 15 26 20
15 14 10 27
16 30 13 12
17 18 23 7
18 17 19 5
19 31 18 21
20 6 22 14
21 25 9 19
22 13 20 8
23 24 17 1
24 23 7 28
25 21 30 10
26 27 14 2
27 26 0 15
28 8 6 24
29 4 31 9
30 16 25 11
31 19 29 3
